p cnf 23 10
e 1 0
a 2 3 0
e 4 0
a 5 0
e 6 7 0
a 8 9 10 0
e 11 12 0
a 13 14 0
e 15 16 17 18 0
a 19 0
e 20 21 0
a 22 23 0
8 -23 -6 1 -2 0
13 8 -14 -16 -3 0
17 19 8 14 -22 0
-15 12 19 -7 10 0
-9 17 -19 -2 0
-16 -7 21 -12 0
-11 -16 13 0
22 20 17 2 -8 0
22 4 -17 -2 15 0
7 18 19 2 -13 0
